************************************************************************
file with basedata            : j9028_.bas
initial value random generator: 872933998
************************************************************************
projects                      :  1
jobs (incl. supersource/sink ):  92
horizon                       :  470
RESOURCES
  - renewable                 :  4   R
  - nonrenewable              :  0   N
  - doubly constrained        :  0   D
************************************************************************
PROJECT INFORMATION:
pronr.  #jobs rel.date duedate tardcost  MPM-Time
    1     90      0      120       73      120
************************************************************************
PRECEDENCE RELATIONS:
jobnr.    #modes  #successors   successors
   1        1          3           2   3   4
   2        1          3           5  49  75
   3        1          3          10  14  31
   4        1          2           7   8
   5        1          3           6  18  32
   6        1          3           9  11  23
   7        1          3          25  27  41
   8        1          3          17  35  46
   9        1          3          12  13  79
  10        1          3          55  58  65
  11        1          1          85
  12        1          2          38  52
  13        1          3          19  20  78
  14        1          1          15
  15        1          3          16  29  69
  16        1          1          83
  17        1          2          34  39
  18        1          2          37  42
  19        1          2          43  45
  20        1          3          21  22  28
  21        1          1          33
  22        1          1          24
  23        1          2          31  43
  24        1          1          46
  25        1          3          26  37  48
  26        1          3          30  52  60
  27        1          3          46  50  54
  28        1          2          37  81
  29        1          2          51  74
  30        1          3          35  36  54
  31        1          1          87
  32        1          1          50
  33        1          3          44  58  61
  34        1          3          40  45  67
  35        1          2          44  57
  36        1          1          71
  37        1          3          47  63  73
  38        1          1          45
  39        1          1          52
  40        1          1          64
  41        1          3          55  76  77
  42        1          3          43  82  86
  43        1          3          55  68  71
  44        1          1          47
  45        1          2          64  90
  46        1          1          48
  47        1          1          69
  48        1          2          53  59
  49        1          1          60
  50        1          3          72  77  84
  51        1          1          79
  52        1          2          78  89
  53        1          2          56  58
  54        1          1          56
  55        1          1          88
  56        1          2          62  64
  57        1          1          77
  58        1          1          91
  59        1          2          63  80
  60        1          3          66  67  68
  61        1          3          63  65  67
  62        1          3          65  66  80
  63        1          2          68  69
  64        1          2          74  86
  65        1          1          76
  66        1          1          71
  67        1          1          70
  68        1          1          84
  69        1          2          82  83
  70        1          2          73  74
  71        1          1          72
  72        1          3          73  81  87
  73        1          1          89
  74        1          1          76
  75        1          1          88
  76        1          1          82
  77        1          1          83
  78        1          3          81  85  87
  79        1          1          80
  80        1          1          90
  81        1          1          88
  82        1          1          84
  83        1          1          85
  84        1          1          89
  85        1          1          86
  86        1          1          91
  87        1          1          91
  88        1          1          90
  89        1          1          92
  90        1          1          92
  91        1          1          92
  92        1          0        
************************************************************************
REQUESTS/DURATIONS:
jobnr. mode duration  R 1  R 2  R 3  R 4
------------------------------------------------------------------------
  1      1     0       0    0    0    0
  2      1     4       8    8    2    6
  3      1     6       5    0    9    0
  4      1     3       2    9    0    3
  5      1     7      10    4    1    5
  6      1     6       6    6    7    0
  7      1     5       9    0    5    8
  8      1     7      10    5    0   10
  9      1     6       4    6   10    6
 10      1     3       8    5    7    7
 11      1     5       4    6    9    1
 12      1     2       3    5    2    9
 13      1    10       9    4    2    3
 14      1     1       9    0    0    1
 15      1     8       4    1   10    5
 16      1     3       1    0   10    9
 17      1     7       7    4    0    1
 18      1     5       0    5    9    8
 19      1     6       3   10    5    5
 20      1    10       1    7    4    7
 21      1     5       4    0    6    6
 22      1     9       4    5    3    0
 23      1     2       7    0    9    6
 24      1     6       0    0    7    6
 25      1     2       4    4   10    4
 26      1     2       0    5   10    5
 27      1     1       0    0   10    0
 28      1     6       0    8    1    3
 29      1     6       8    1    0    0
 30      1     9       3    5    6    3
 31      1     6       0    0    0   10
 32      1     7       6    3    9    1
 33      1     1      10    7    4    2
 34      1     1       3    8    1    0
 35      1     1       8    3    0    5
 36      1     9       8    5    0   10
 37      1     2       1    6    0    5
 38      1     3       3    9    0    0
 39      1     6       0    0    1    3
 40      1     6       1    5    8    3
 41      1     7       5    0    6    5
 42      1     1       3    2    0    0
 43      1    10       7    4    7    4
 44      1     7       4    3    0    4
 45      1    10       2    4    0    0
 46      1     6       0   10   10    0
 47      1     9       0    8    9    3
 48      1     6       3    6    2    8
 49      1     3       0    9    4    0
 50      1     6       5    3    2    5
 51      1     5      10    3   10    8
 52      1    10       7    7    9    0
 53      1     3       0    4    0    0
 54      1     5       6    1    3    2
 55      1     8       0    9    1    1
 56      1     5       5    3    0    5
 57      1     5       9   10    0   10
 58      1     2       0    3    8    6
 59      1     7       3   10    6    0
 60      1     7       0    0    6    4
 61      1     1       4    1    2    3
 62      1    10       2    7    0    5
 63      1     2       3    7    0    8
 64      1     7      10    5    0    1
 65      1     5       4    7    5    0
 66      1     7       4    9    1    0
 67      1     5       1    7    7    8
 68      1     1       5   10    0    2
 69      1     6       1    8    0    0
 70      1     5       0    1    7    8
 71      1     2       2    2    1    4
 72      1     9       2    0    6    3
 73      1     7       0    8    3    5
 74      1     7       0   10   10    4
 75      1     7       8    3    3    7
 76      1     6       7    0    5    0
 77      1     4       0    1    7    0
 78      1    10       3    6    0    0
 79      1     7       9    0    0    1
 80      1     3       0    8    9    9
 81      1     4       2    1    2    2
 82      1     4       0    0    6    2
 83      1     6       0    4    4    8
 84      1     5       7   10    5    0
 85      1     5       8    0   10    2
 86      1     1      10    0    1    5
 87      1     1       2    0    6    0
 88      1     9       0    6    8    1
 89      1     1       2    0    1    3
 90      1     1       3    1    5    2
 91      1     6       7    0    0    3
 92      1     0       0    0    0    0
************************************************************************
RESOURCEAVAILABILITIES:
  R 1  R 2  R 3  R 4
   54   39   61   60
************************************************************************
